4 100 2007
9 6 10 6 9 3 14 16 10 11
1 4 1 3
9
7 9 4 8
1
8 3 6
0 40.0 50.0 0.0 0.0 0 1236
2 45.0 68.0 90.0 10.0 850 1030 34 1 0 0 0 0 1 0 0 1 0
3 45.0 70.0 90.0 30.0 758 938 34 0 0 0 0 0 0 0 1 0 0
4 42.0 66.0 90.0 10.0 16 196 67 1 0 1 0 0 0 0 1 0 0
5 42.0 68.0 90.0 10.0 665 845 61 0 0 0 0 0 0 1 1 1 1
6 42.0 65.0 90.0 10.0 15 195 48 0 0 0 0 0 0 1 0 0 0
7 40.0 69.0 90.0 20.0 572 752 4 0 0 0 0 0 0 0 0 0 1
8 40.0 66.0 90.0 20.0 108 288 12 0 0 0 0 0 1 0 0 0 0
9 38.0 68.0 90.0 20.0 200 380 60 0 0 0 0 0 0 0 0 0 1
10 38.0 70.0 90.0 10.0 480 660 15 0 0 0 0 0 0 1 0 0 0
11 35.0 66.0 90.0 10.0 294 474 6 0 0 0 0 0 1 0 0 0 1
12 35.0 69.0 90.0 10.0 387 567 49 0 0 0 0 0 1 0 0 0 0
13 25.0 85.0 90.0 20.0 597 777 85 0 1 0 0 0 0 0 0 0 0
14 22.0 75.0 90.0 30.0 30 210 38 0 0 0 1 1 0 0 0 0 0
15 22.0 85.0 90.0 10.0 504 684 63 0 0 1 0 0 0 0 0 0 1
16 20.0 80.0 90.0 40.0 317 497 25 1 1 0 0 1 0 0 0 0 0
17 20.0 85.0 90.0 40.0 412 592 15 1 1 1 0 0 0 0 0 0 0
18 18.0 75.0 90.0 20.0 34 214 96 0 0 1 0 0 1 0 0 0 0
19 15.0 75.0 90.0 20.0 127 307 85 0 0 0 1 0 0 0 0 0 0
20 15.0 80.0 90.0 10.0 222 402 11 1 0 0 0 0 0 0 0 0 0
21 30.0 50.0 90.0 10.0 10 190 43 1 0 0 0 0 0 1 0 0 0
22 30.0 52.0 90.0 20.0 850 1030 44 0 0 0 0 0 1 0 0 0 0
23 28.0 52.0 90.0 20.0 758 938 15 0 0 0 1 0 0 0 0 0 1
24 28.0 55.0 90.0 10.0 665 845 21 0 0 0 0 0 0 0 1 0 0
25 25.0 50.0 90.0 10.0 15 195 93 0 0 0 0 0 0 0 0 0 1
26 25.0 52.0 90.0 40.0 107 287 67 0 1 0 0 0 0 0 0 0 1
27 25.0 55.0 90.0 10.0 572 752 99 0 0 0 0 1 0 0 0 0 1
28 23.0 52.0 90.0 10.0 199 379 46 1 0 0 0 1 0 0 1 0 0
29 23.0 55.0 90.0 20.0 480 660 30 0 0 0 1 0 0 1 0 0 0
30 20.0 50.0 90.0 10.0 292 472 81 0 0 1 0 0 0 0 0 1 1
31 20.0 55.0 90.0 10.0 387 567 25 0 0 0 1 0 0 0 1 0 0
32 10.0 35.0 90.0 20.0 129 309 82 0 1 0 0 0 0 1 1 0 0
33 10.0 40.0 90.0 30.0 31 211 47 0 0 0 0 1 0 1 1 0 0
34 8.0 40.0 90.0 40.0 33 213 94 0 0 1 0 0 1 0 1 0 1
35 8.0 45.0 90.0 20.0 694 874 28 1 0 1 0 0 0 0 1 0 0
36 5.0 35.0 90.0 10.0 224 404 42 1 0 0 0 0 0 1 0 1 0
37 5.0 45.0 90.0 10.0 601 781 2 0 1 0 0 0 0 0 0 0 0
38 2.0 40.0 90.0 20.0 319 499 38 0 0 0 0 1 0 0 0 0 0
39 0.0 40.0 90.0 30.0 411 591 34 0 0 0 0 0 0 1 0 0 0
40 0.0 45.0 90.0 20.0 506 686 7 0 0 1 0 0 0 0 0 1 0
41 35.0 30.0 90.0 10.0 203 383 51 1 0 0 0 0 1 0 1 0 0
42 35.0 32.0 90.0 10.0 111 291 99 0 0 0 0 0 0 0 1 0 0
43 33.0 32.0 90.0 20.0 19 199 85 0 0 1 0 1 0 1 1 0 1
44 33.0 35.0 90.0 10.0 16 196 55 0 0 0 1 0 0 0 0 0 0
45 32.0 30.0 90.0 10.0 296 476 88 1 0 0 1 1 0 0 0 0 0
46 30.0 30.0 90.0 10.0 481 661 94 0 0 0 0 1 0 0 0 1 0
47 30.0 32.0 90.0 30.0 389 569 89 0 0 0 0 0 0 0 0 0 1
48 30.0 35.0 90.0 10.0 947 1127 23 1 0 1 0 0 0 1 0 0 0
49 28.0 30.0 90.0 10.0 573 753 89 0 1 0 0 1 0 0 0 0 0
50 28.0 35.0 90.0 10.0 944 1124 42 0 1 0 0 1 0 0 0 0 0
51 26.0 32.0 90.0 10.0 758 938 21 0 0 0 0 0 0 0 1 0 0
52 25.0 30.0 90.0 10.0 666 846 12 0 0 1 0 0 0 0 0 0 0
53 25.0 35.0 90.0 10.0 851 1031 4 0 0 0 0 0 0 1 0 0 0
54 44.0 5.0 90.0 20.0 227 407 45 0 0 0 0 0 0 0 1 0 0
55 42.0 10.0 90.0 40.0 132 312 57 0 0 0 0 1 0 0 1 0 1
56 42.0 15.0 90.0 10.0 37 217 37 1 0 0 1 0 0 1 0 1 0
57 40.0 5.0 90.0 30.0 321 501 18 0 0 0 0 0 0 0 1 0 0
58 40.0 15.0 90.0 40.0 35 215 83 0 1 0 0 1 1 1 1 0 0
59 38.0 5.0 90.0 30.0 413 593 86 1 0 0 0 0 0 0 0 0 0
60 38.0 15.0 90.0 10.0 606 786 83 0 0 0 1 0 0 0 0 1 0
61 35.0 5.0 90.0 20.0 506 686 44 1 0 0 1 0 0 0 0 0 0
62 50.0 30.0 90.0 10.0 481 661 8 0 0 0 0 0 1 0 1 0 0
63 50.0 35.0 90.0 20.0 200 380 53 0 0 0 0 0 0 0 0 0 1
64 50.0 40.0 90.0 50.0 105 285 72 0 0 0 0 1 0 0 1 0 0
65 48.0 30.0 90.0 10.0 573 753 93 0 0 0 0 0 1 0 0 0 0
66 48.0 40.0 90.0 10.0 13 193 33 1 0 1 0 0 0 0 0 1 0
67 47.0 35.0 90.0 10.0 761 941 67 0 0 0 0 0 0 0 0 1 0
68 47.0 40.0 90.0 10.0 12 192 19 1 0 0 0 0 0 0 0 0 0
69 45.0 30.0 90.0 10.0 666 846 96 0 1 0 0 0 0 1 0 0 0
70 45.0 35.0 90.0 10.0 853 1033 58 0 0 0 0 0 0 1 0 0 0
71 95.0 30.0 90.0 30.0 332 512 15 0 1 1 0 0 0 1 1 0 1
72 95.0 35.0 90.0 20.0 237 417 69 0 0 0 1 0 0 1 1 1 1
73 53.0 30.0 90.0 10.0 388 568 86 0 0 0 0 0 0 0 1 0 1
74 92.0 30.0 90.0 10.0 425 605 59 0 1 0 0 0 0 0 1 0 0
75 53.0 35.0 90.0 50.0 293 473 48 0 0 1 0 1 0 1 0 0 1
76 45.0 65.0 90.0 20.0 943 1123 44 0 0 0 0 0 1 0 0 0 0
77 90.0 35.0 90.0 10.0 142 322 78 0 0 0 0 0 1 0 0 0 0
78 88.0 30.0 90.0 10.0 519 699 95 0 0 0 0 0 0 1 0 0 0
79 88.0 35.0 90.0 20.0 50 230 54 0 0 1 0 0 0 0 0 0 1
80 87.0 30.0 90.0 10.0 610 790 27 0 0 0 0 1 1 0 0 0 0
81 85.0 25.0 90.0 10.0 705 885 77 0 1 0 1 1 0 0 0 0 0
82 85.0 35.0 90.0 30.0 47 227 14 0 0 0 1 0 0 1 1 1 0
83 75.0 55.0 90.0 20.0 305 485 27 0 1 0 1 0 0 0 0 0 0
84 72.0 55.0 90.0 10.0 212 392 2 0 0 1 0 1 0 0 0 1 0
85 70.0 58.0 90.0 20.0 401 581 25 1 0 0 0 1 1 0 1 1 1
86 68.0 60.0 90.0 30.0 494 674 87 0 0 0 0 0 1 0 0 0 0
87 66.0 55.0 90.0 10.0 116 296 13 0 0 0 0 0 1 0 0 0 0
88 65.0 55.0 90.0 20.0 25 205 17 0 0 0 0 0 1 0 0 0 0
89 65.0 60.0 90.0 30.0 587 767 9 0 0 0 0 0 1 0 0 0 0
90 63.0 58.0 90.0 10.0 680 860 4 0 0 0 0 0 0 0 0 1 0
91 60.0 55.0 90.0 10.0 20 200 51 0 0 1 1 0 0 0 0 0 0
92 60.0 60.0 90.0 10.0 773 953 21 0 0 1 0 0 0 0 1 0 0
93 67.0 85.0 90.0 20.0 315 495 96 0 0 1 0 0 0 1 0 0 0
94 65.0 85.0 90.0 40.0 407 587 58 1 0 1 0 0 0 1 1 1 0
95 65.0 82.0 90.0 10.0 221 401 96 1 0 0 0 0 0 0 0 1 1
96 62.0 80.0 90.0 30.0 128 308 76 1 0 0 0 0 0 1 0 0 0
97 60.0 80.0 90.0 10.0 36 216 95 0 0 1 0 0 0 0 1 0 0
98 60.0 85.0 90.0 30.0 502 682 74 0 0 0 0 0 0 0 1 1 1
99 58.0 75.0 90.0 20.0 30 210 37 0 0 0 0 1 0 0 1 1 0
100 55.0 80.0 90.0 10.0 692 872 42 0 0 1 0 0 0 0 0 0 1
101 55.0 85.0 90.0 20.0 597 777 69 0 0 0 0 0 1 0 0 0 0